50
263
235
133
144
253
128
223
113
135
250
107
264
219
182
130
123
147
253
173
219
132
174
259
268
124
148
117
221
265
172
161
126
101
126
254
170
203
237
222
126
170
207
185
160
193
264
268
221
159
164
